199	32	4	130	
17	14	15	12

0	0	0	0	0	0	3	1	2	3
1	7	1	4	1	4	2	6	11
2	9	2	5	8	7	2	11	16
3	8	3	10	2	10	1	4
4	4	7	10	4	4	1	5
5	3	1	4	6	3	1	7
6	5	5	2	9	1	1	8
7	8	5	8	6	1	2	11	15
8	9	2	6	9	9	1	9
9	3	7	7	2	10	1	10
10	6	3	2	2	10	1	13
11	10	5	8	5	3	1	12
12	1	9	9	3	5	1	22
13	1	10	7	10	8	1	14
14	9	2	1	5	7	1	19
15	7	1	3	7	9	1	16
16	3	8	7	7	7	1	17
17	2	7	7	4	9	1	18
18	3	3	8	6	8	1	23
19	5	6	7	6	7	1	20
20	1	5	5	2	1	1	21
21	1	6	2	4	10	1	22
22	7	10	9	2	6	1	25
23	8	7	4	7	2	1	24
24	7	5	8	6	10	1	27
25	2	6	10	7	8	1	26
26	8	5	2	5	7	1	28
27	9	5	9	5	8	1	29
28	5	7	7	4	7	1	30
29	7	4	10	2	10	1	31
30	4	1	10	6	8	1	31
31	0	0	0	0	0	0
